<?xml version = "1.0" encoding="UTF-8" standalone="yes"?>
<CPLEXSolution version="1.2">
 <header
   problemName=""
   solutionName="p0"
   solutionIndex="-1"
   objectiveValue="41"
   solutionTypeValue="3"
   solutionTypeString="primal"
   solutionStatusValue="127"
   solutionStatusString="integer feasible solution"
   solutionMethodString="mip"
   primalFeasible="0"
   dualFeasible="0"
   writeLevel="1"/>
 <quality
   epInt="1.0000000000000001e-05"
   epRHS="9.9999999999999995e-07"
   maxIntInfeas="0"
   maxPrimalInfeas="2.1316282072803006e-14"
   maxX="41"
   maxSlack="78"/>
 <linearConstraints>
  <constraint index="0" slack="-15.999999999999979"/>
  <constraint index="1" slack="0"/>
  <constraint index="2" slack="-10"/>
  <constraint index="3" slack="0"/>
  <constraint index="4" slack="2.1316282072803006e-14"/>
  <constraint index="5" slack="-10.000000000000021"/>
  <constraint index="6" slack="-8.8817841970012523e-16"/>
  <constraint index="7" slack="-8.9999999999999787"/>
  <constraint index="8" slack="-8"/>
  <constraint index="9" slack="0"/>
  <constraint index="10" slack="-56"/>
  <constraint index="11" slack="-22"/>
  <constraint index="12" slack="-68"/>
  <constraint index="13" slack="-10"/>
  <constraint index="14" slack="-73"/>
  <constraint index="15" slack="0"/>
  <constraint index="16" slack="-61"/>
  <constraint index="17" slack="-15"/>
  <constraint index="18" slack="-7"/>
  <constraint index="19" slack="-67"/>
  <constraint index="20" slack="-12"/>
  <constraint index="21" slack="-57"/>
  <constraint index="22" slack="0"/>
  <constraint index="23" slack="-72"/>
  <constraint index="24" slack="0"/>
  <constraint index="25" slack="-69"/>
  <constraint index="26" slack="-72"/>
  <constraint index="27" slack="0"/>
  <constraint index="28" slack="-62"/>
  <constraint index="29" slack="-5"/>
  <constraint index="30" slack="-3.9999999999999787"/>
  <constraint index="31" slack="-69.000000000000028"/>
  <constraint index="32" slack="-62.999999999999972"/>
  <constraint index="33" slack="-10.000000000000028"/>
  <constraint index="34" slack="-75"/>
  <constraint index="35" slack="0"/>
  <constraint index="36" slack="-11.999999999999979"/>
  <constraint index="37" slack="-61.000000000000021"/>
  <constraint index="38" slack="-51"/>
  <constraint index="39" slack="-17"/>
  <constraint index="40" slack="-63.000000000000028"/>
  <constraint index="41" slack="-6.9999999999999716"/>
  <constraint index="42" slack="0"/>
  <constraint index="43" slack="-68"/>
  <constraint index="44" slack="-4.0000000000000213"/>
  <constraint index="45" slack="-65.999999999999972"/>
  <constraint index="46" slack="-25"/>
  <constraint index="47" slack="-43"/>
  <constraint index="48" slack="-14.999999999999979"/>
  <constraint index="49" slack="-55.000000000000021"/>
  <constraint index="50" slack="-65.999999999999972"/>
  <constraint index="51" slack="-6.0000000000000284"/>
  <constraint index="52" slack="0"/>
  <constraint index="53" slack="-78"/>
  <constraint index="54" slack="-18.999999999999979"/>
  <constraint index="55" slack="-59.000000000000021"/>
  <constraint index="56" slack="-3.9999999999999787"/>
  <constraint index="57" slack="-75.000000000000028"/>
  <constraint index="58" slack="-8.0000000000000213"/>
  <constraint index="59" slack="-61.999999999999979"/>
  <constraint index="60" slack="-27"/>
  <constraint index="61" slack="-43"/>
  <constraint index="62" slack="-12"/>
  <constraint index="63" slack="-59"/>
  <constraint index="64" slack="-14.999999999999979"/>
  <constraint index="65" slack="-61.000000000000021"/>
  <constraint index="66" slack="2.1316282072803006e-14"/>
  <constraint index="67" slack="-77.000000000000028"/>
  <constraint index="68" slack="-65"/>
  <constraint index="69" slack="-12"/>
  <constraint index="70" slack="-16.000000000000021"/>
  <constraint index="71" slack="0"/>
  <constraint index="72" slack="0"/>
  <constraint index="73" slack="-12.000000000000021"/>
  <constraint index="74" slack="-15"/>
 </linearConstraints>
 <variables>
  <variable name="x_0_0" index="0" value="3.0000000000000009"/>
  <variable name="x_0_1" index="1" value="26"/>
  <variable name="x_0_2" index="2" value="14"/>
  <variable name="x_0_3" index="3" value="4.0000000000000009"/>
  <variable name="x_0_4" index="4" value="19"/>
  <variable name="x_1_0" index="5" value="19.999999999999979"/>
  <variable name="x_1_1" index="6" value="8"/>
  <variable name="x_1_2" index="7" value="33"/>
  <variable name="x_1_3" index="8" value="22.999999999999979"/>
  <variable name="x_1_4" index="9" value="0"/>
  <variable name="x_2_0" index="10" value="22.999999999999979"/>
  <variable name="x_2_1" index="11" value="31"/>
  <variable name="x_2_2" index="12" value="18.999999999999979"/>
  <variable name="x_2_3" index="13" value="0"/>
  <variable name="x_2_4" index="14" value="16"/>
  <variable name="z_0_0_1" index="15" value="1"/>
  <variable name="z_0_0_2" index="16" value="1"/>
  <variable name="z_0_0_3" index="17" value="1"/>
  <variable name="z_0_0_4" index="18" value="1"/>
  <variable name="z_0_1_2" index="19" value="-0"/>
  <variable name="z_0_1_3" index="20" value="-0"/>
  <variable name="z_0_1_4" index="21" value="-0"/>
  <variable name="z_0_2_3" index="22" value="-0"/>
  <variable name="z_0_2_4" index="23" value="1"/>
  <variable name="z_0_3_4" index="24" value="1"/>
  <variable name="z_1_0_1" index="25" value="-0"/>
  <variable name="z_1_0_2" index="26" value="1"/>
  <variable name="z_1_0_3" index="27" value="1"/>
  <variable name="z_1_0_4" index="28" value="-0"/>
  <variable name="z_1_1_2" index="29" value="1"/>
  <variable name="z_1_1_3" index="30" value="1"/>
  <variable name="z_1_1_4" index="31" value="-0"/>
  <variable name="z_1_2_3" index="32" value="-0"/>
  <variable name="z_1_2_4" index="33" value="-0"/>
  <variable name="z_1_3_4" index="34" value="-0"/>
  <variable name="z_2_0_1" index="35" value="1"/>
  <variable name="z_2_0_2" index="36" value="-0"/>
  <variable name="z_2_0_3" index="37" value="-0"/>
  <variable name="z_2_0_4" index="38" value="-0"/>
  <variable name="z_2_1_2" index="39" value="-0"/>
  <variable name="z_2_1_3" index="40" value="-0"/>
  <variable name="z_2_1_4" index="41" value="-0"/>
  <variable name="z_2_2_3" index="42" value="-0"/>
  <variable name="z_2_2_4" index="43" value="-0"/>
  <variable name="z_2_3_4" index="44" value="1"/>
  <variable name="cmax" index="45" value="41"/>
 </variables>
</CPLEXSolution>
